17	4
34	35	35	37	
0	0	0	0	0	3	2	3	4	
5	2	4	7	9	3	5	7	15	
4	3	1	7	2	3	17	17	17	
6	1	3	10	2	3	6	13	17	
1	2	7	7	3	3	9	11	17	
100	5	8	1	5	3	8	11	14	
100	9	1	9	7	3	10	16	17	
200	2	9	7	3	3	9	17	17	
225	8	3	1	3	3	16	17	17	
125	10	5	1	2	3	12	17	17	
100	6	10	9	5	3	16	17	17	
75	6	7	2	5	3	13	14	17	
4	6	5	10	6	2	17	17	
2	8	2	9	1	2	17	17	
1	9	7	9	1	3	17	17	17	
10	1	5	7	9	1	17	
0	0	0	0	0	0	
